nNurses = 139;
nHours = 32;
minHours = 8;
maxHours = 11;
maxConsec = 7;
maxPresence = 15;
demand = [14, 13, 17, 20, 18, 19, 18, 18, 19, 23, 25, 29, 29, 32, 36, 38, 37, 37, 41, 37, 39, 39, 42, 38, 33, 29, 24, 23, 27, 24, 27, 28];
